Please solve the following SAT Problem encoded in DIMACS format, provide line of thoughts, write your final answer as a single solution at the end of response with header 'answer: ' : 
p cnf 10 75
8 -10 -6 0
-7 1 -3 0
-5 6 -4 0
-3 8 9 0
2 -6 10 0
4 8 10 0
8 1 -7 0
1 2 8 0
2 -7 10 0
3 10 -5 0
-3 -7 -6 0
-3 10 -9 0
-4 -6 -7 0
-6 -5 9 0
-7 5 -6 0
3 1 2 0
10 -4 5 0
-3 -1 8 0
-9 -5 1 0
-8 10 -3 0
-10 2 -7 0
1 -3 -7 0
-9 3 -5 0
-4 1 10 0
10 4 -9 0
10 1 -7 0
-4 -3 2 0
-2 1 -5 0
-9 1 -5 0
6 -5 10 0
-9 7 10 0
10 -9 -5 0
8 2 -4 0
-3 2 5 0
-5 -8 6 0
2 -4 9 0
-3 2 -4 0
-5 1 10 0
2 -7 1 0
2 -9 1 0
1 3 8 0
5 8 10 0
10 1 -9 0
2 -5 1 0
-5 10 4 0
-5 -3 -7 0
-9 2 -8 0
-2 -9 -5 0
10 -3 -9 0
1 2 -5 0
10 -9 2 0
6 -7 -3 0
-9 -6 8 0
1 -7 -6 0
10 -4 -5 0
-6 4 2 0
-4 9 2 0
10 7 9 0
-3 10 -5 0
2 10 -6 0
-5 -7 -3 0
-9 3 2 0
2 4 -9 0
10 -3 -4 0
4 -6 8 0
-7 -9 -4 0
-10 -3 -9 0
2 3 -4 0
-5 -6 2 0
2 -3 -4 0
8 10 -7 0
2 9 -5 0
-5 10 -3 0
-5 -9 1 0
-3 -4 -2 0

